20J7M/DAT/20J7MULL-3.dat
20 7
8.7564 8.7564
49.1457 49.1457
13.3021 13.3021
43.9367 43.9367
6.76 6.76
16.4498 16.4498
48.1919 48.1919
9.4765 9.4765
2.7542 2.7542
38.7158 38.7158
26.7826 26.7826
38.3254 38.3254
21.0367 21.0367
6.3095 6.3095
1.4766 1.4766
40.9299 40.9299
3.562 3.562
42.0765 42.0765
46.4318 46.4318
16.3767 16.3767
68.6853