20J7M/SOL/20J7MULL-3.sol
solution status: optimal solution found
objective value:                              73.3095
x#1#2                                               1 	(obj:0)
x#2#1                              0.0374315941167653 	(obj:0)
x#2#4                               0.962568405883235 	(obj:0)
x#3#2                               0.262339146355716 	(obj:0)
x#3#4                               0.737660853644284 	(obj:0)
x#4#4                                               1 	(obj:0)
x#5#5                                               1 	(obj:0)
x#6#3                                               1 	(obj:0)
x#7#2                               0.335380097443769 	(obj:0)
x#7#3                               0.664619902556231 	(obj:0)
x#8#7                                               1 	(obj:0)
x#9#5                                               1 	(obj:0)
x#10#3                                              1 	(obj:0)
x#11#7                                              1 	(obj:0)
x#12#5                                              1 	(obj:0)
x#13#1                                              1 	(obj:0)
x#14#5                              0.726215143420626 	(obj:0)
x#14#6                              0.273784856579374 	(obj:0)
x#15#7                                              1 	(obj:0)
x#16#7                                              1 	(obj:0)
x#17#1                                              1 	(obj:0)
x#18#2                              0.103839118657321 	(obj:0)
x#18#6                              0.580541902873579 	(obj:0)
x#18#7                                0.3156189784691 	(obj:0)
x#19#6                                              1 	(obj:0)
x#20#2                                              1 	(obj:0)
z                                             73.3095 	(obj:1)
